results/x-10M/X-n190-k8.vrp_seed-4.out
16981	11880
