results/x-10M/X-n190-k8.vrp_seed-4.vrp.sol
Route #1: 131 118 99 45 149 139 72 133 156 129 108 103 34 128 163 4 110 168 120 13 171 66 63 57 19 105
Route #2: 16 166 51 93 75 132 161 74 111 113 91 59 55 69 178 50 94 144 115 145 135 46
Route #3: 81 21 179 62 42 90 96 3 15 27 187 124 140 189 154 53 114 9 23 164 158 121 67 14
Route #4: 10 43 58 28 138 85 80 150 30 39 36 22 38 2 6 35 109 89 104 142 159 102
Route #5: 37 29 83 182 160 184 1 165 88 44 127 172
Route #6: 73 112 169 78 147 77 86 125 137 151 174 41 152 87 186 146 177 123 71 52 101 47 5 176 12 24 97 143 95
Route #7: 31 92 68 100 8 56 130 48 54 126 181 70 76 185 18 40 32 61 180 153 84 98 141 148 167 136 183 25 64 188
Route #8: 170 157 173 134 107 33 65 20 162 7 155 17 79 60 116 82 122 11 175 117 26 49 119 106
Cost 16981.000000